p cnf 966 2481
51 -699 -1 0
-51 699 0
-51 1 0
52 -51 -700 0
-52 51 0
-52 700 0
53 -5 -4 0
-53 5 0
-53 4 0
54 -53 -6 0
-54 53 0
-54 6 0
55 -701 -702 0
-55 701 0
-55 702 0
56 -8 -7 0
-56 8 0
-56 7 0
57 -56 -9 0
-57 56 0
-57 9 0
58 -703 -55 0
-58 703 0
-58 55 0
59 -10 -704 0
-59 10 0
-59 704 0
60 -59 -11 0
-60 59 0
-60 11 0
61 -705 -58 0
-61 705 0
-61 58 0
62 -13 -706 0
-62 13 0
-62 706 0
63 -62 -707 0
-63 62 0
-63 707 0
64 -708 -61 0
-64 708 0
-64 61 0
65 -709 -710 0
-65 709 0
-65 710 0
66 -65 -711 0
-66 65 0
-66 711 0
67 -712 -64 0
-67 712 0
-67 64 0
68 -713 -18 0
-68 713 0
-68 18 0
69 -68 -20 0
-69 68 0
-69 20 0
70 -714 -67 0
-70 714 0
-70 67 0
71 -21 -1 0
-71 21 0
-71 1 0
72 -71 -715 0
-72 71 0
-72 715 0
73 -716 -70 0
-73 716 0
-73 70 0
74 -7 -704 0
-74 7 0
-74 704 0
75 -74 -23 0
-75 74 0
-75 23 0
76 -717 -73 0
-76 717 0
-76 73 0
77 -24 -700 0
-77 24 0
-77 700 0
78 -77 -25 0
-78 77 0
-78 25 0
79 -718 -76 0
-79 718 0
-79 76 0
80 -27 -26 0
-80 27 0
-80 26 0
81 -80 -719 0
-81 80 0
-81 719 0
82 -720 -79 0
-82 720 0
-82 79 0
83 -721 -27 0
-83 721 0
-83 27 0
84 -83 -722 0
-84 83 0
-84 722 0
85 -723 -82 0
-85 723 0
-85 82 0
86 -724 -3 0
-86 724 0
-86 3 0
87 -86 -31 0
-87 86 0
-87 31 0
88 -725 -85 0
-88 725 0
-88 85 0
89 -33 -726 0
-89 33 0
-89 726 0
90 -89 -17 0
-90 89 0
-90 17 0
91 -727 -88 0
-91 727 0
-91 88 0
92 -728 -729 0
-92 728 0
-92 729 0
93 -92 -730 0
-93 92 0
-93 730 0
94 -731 -91 0
-94 731 0
-94 91 0
95 -732 -730 0
-95 732 0
-95 730 0
96 -95 -733 0
-96 95 0
-96 733 0
97 -734 -94 0
-97 734 0
-97 94 0
98 -715 -20 0
-98 715 0
-98 20 0
99 -98 -17 0
-99 98 0
-99 17 0
100 -735 -97 0
-100 735 0
-100 97 0
101 -36 -736 0
-101 36 0
-101 736 0
102 -101 -30 0
-102 101 0
-102 30 0
103 -737 -100 0
-103 737 0
-103 100 0
104 -738 -4 0
-104 738 0
-104 4 0
105 -104 -739 0
-105 104 0
-105 739 0
106 -740 -103 0
-106 740 0
-106 103 0
107 -39 -6 0
-107 39 0
-107 6 0
108 -107 -741 0
-108 107 0
-108 741 0
109 -742 -106 0
-109 742 0
-109 106 0
110 -743 -12 0
-110 743 0
-110 12 0
111 -110 -700 0
-111 110 0
-111 700 0
112 -744 -109 0
-112 744 0
-112 109 0
113 -745 -14 0
-113 745 0
-113 14 0
114 -113 -36 0
-114 113 0
-114 36 0
115 -746 -112 0
-115 746 0
-115 112 0
116 -42 -14 0
-116 42 0
-116 14 0
117 -116 -17 0
-117 116 0
-117 17 0
118 -747 -115 0
-118 747 0
-118 115 0
119 -738 -700 0
-119 738 0
-119 700 0
120 -119 -748 0
-120 119 0
-120 748 0
121 -749 -118 0
-121 749 0
-121 118 0
122 -750 -700 0
-122 750 0
-122 700 0
123 -122 -43 0
-123 122 0
-123 43 0
124 -751 -121 0
-124 751 0
-124 121 0
125 -44 -729 0
-125 44 0
-125 729 0
126 -125 -45 0
-126 125 0
-126 45 0
127 -752 -124 0
-127 752 0
-127 124 0
128 -753 -754 0
-128 753 0
-128 754 0
129 -128 -47 0
-129 128 0
-129 47 0
130 -755 -127 0
-130 755 0
-130 127 0
131 -756 -25 0
-131 756 0
-131 25 0
132 -131 -11 0
-132 131 0
-132 11 0
133 -757 -130 0
-133 757 0
-133 130 0
134 -758 -724 0
-134 758 0
-134 724 0
135 -134 -748 0
-135 134 0
-135 748 0
136 -759 -133 0
-136 759 0
-136 133 0
137 -44 -37 0
-137 44 0
-137 37 0
138 -137 -760 0
-138 137 0
-138 760 0
139 -761 -136 0
-139 761 0
-139 136 0
140 -762 -26 0
-140 762 0
-140 26 0
141 -140 -36 0
-141 140 0
-141 36 0
142 -763 -139 0
-142 763 0
-142 139 0
143 -36 -711 0
-143 36 0
-143 711 0
144 -143 -760 0
-144 143 0
-144 760 0
145 -764 -142 0
-145 764 0
-145 142 0
146 -750 -5 0
-146 750 0
-146 5 0
147 -146 -31 0
-147 146 0
-147 31 0
148 -765 -145 0
-148 765 0
-148 145 0
149 -19 -7 0
-149 19 0
-149 7 0
150 -149 -719 0
-150 149 0
-150 719 0
151 -766 -148 0
-151 766 0
-151 148 0
152 -745 -738 0
-152 745 0
-152 738 0
153 -152 -750 0
-153 152 0
-153 750 0
154 -767 -151 0
-154 767 0
-154 151 0
155 -768 -699 0
-155 768 0
-155 699 0
156 -155 -769 0
-156 155 0
-156 769 0
157 -770 -154 0
-157 770 0
-157 154 0
158 -706 -1 0
-158 706 0
-158 1 0
159 -158 -48 0
-159 158 0
-159 48 0
160 -771 -157 0
-160 771 0
-160 157 0
161 -713 -11 0
-161 713 0
-161 11 0
162 -161 -23 0
-162 161 0
-162 23 0
163 -772 -160 0
-163 772 0
-163 160 0
164 -773 -730 0
-164 773 0
-164 730 0
165 -164 -19 0
-165 164 0
-165 19 0
166 -774 -163 0
-166 774 0
-166 163 0
167 -738 -729 0
-167 738 0
-167 729 0
168 -167 -713 0
-168 167 0
-168 713 0
169 -775 -166 0
-169 775 0
-169 166 0
170 -42 -721 0
-170 42 0
-170 721 0
171 -170 -748 0
-171 170 0
-171 748 0
172 -776 -169 0
-172 776 0
-172 169 0
173 -777 -778 0
-173 777 0
-173 778 0
174 -173 -33 0
-174 173 0
-174 33 0
175 -779 -172 0
-175 779 0
-175 172 0
176 -726 -724 0
-176 726 0
-176 724 0
177 -176 -2 0
-177 176 0
-177 2 0
178 -780 -175 0
-178 780 0
-178 175 0
179 -758 -754 0
-179 758 0
-179 754 0
180 -179 -781 0
-180 179 0
-180 781 0
181 -782 -178 0
-181 782 0
-181 178 0
182 -22 -783 0
-182 22 0
-182 783 0
183 -182 -9 0
-183 182 0
-183 9 0
184 -784 -181 0
-184 784 0
-184 181 0
185 -785 -39 0
-185 785 0
-185 39 0
186 -185 -11 0
-186 185 0
-186 11 0
187 -786 -184 0
-187 786 0
-187 184 0
188 -732 -29 0
-188 732 0
-188 29 0
189 -188 -3 0
-189 188 0
-189 3 0
190 -787 -187 0
-190 787 0
-190 187 0
191 -42 -706 0
-191 42 0
-191 706 0
192 -191 -741 0
-192 191 0
-192 741 0
193 -788 -190 0
-193 788 0
-193 190 0
194 -8 -2 0
-194 8 0
-194 2 0
195 -194 -713 0
-195 194 0
-195 713 0
196 -789 -193 0
-196 789 0
-196 193 0
197 -710 -704 0
-197 710 0
-197 704 0
198 -197 -711 0
-198 197 0
-198 711 0
199 -790 -196 0
-199 790 0
-199 196 0
200 -753 -36 0
-200 753 0
-200 36 0
201 -200 -23 0
-201 200 0
-201 23 0
202 -791 -199 0
-202 791 0
-202 199 0
203 -768 -4 0
-203 768 0
-203 4 0
204 -203 -2 0
-204 203 0
-204 2 0
205 -792 -202 0
-205 792 0
-205 202 0
206 -726 -730 0
-206 726 0
-206 730 0
207 -206 -781 0
-207 206 0
-207 781 0
208 -793 -205 0
-208 793 0
-208 205 0
209 -50 -700 0
-209 50 0
-209 700 0
210 -209 -36 0
-210 209 0
-210 36 0
211 -794 -208 0
-211 794 0
-211 208 0
212 -743 -4 0
-212 743 0
-212 4 0
213 -212 -47 0
-213 212 0
-213 47 0
214 -795 -211 0
-214 795 0
-214 211 0
215 -40 -704 0
-215 40 0
-215 704 0
216 -215 -17 0
-216 215 0
-216 17 0
217 -796 -214 0
-217 796 0
-217 214 0
218 -46 -12 0
-218 46 0
-218 12 0
219 -218 -11 0
-219 218 0
-219 11 0
220 -797 -217 0
-220 797 0
-220 217 0
221 -29 -729 0
-221 29 0
-221 729 0
222 -221 -798 0
-222 221 0
-222 798 0
223 -799 -220 0
-223 799 0
-223 220 0
224 -32 -724 0
-224 32 0
-224 724 0
225 -224 -785 0
-225 224 0
-225 785 0
226 -800 -223 0
-226 800 0
-226 223 0
227 -768 -12 0
-227 768 0
-227 12 0
228 -227 -36 0
-228 227 0
-228 36 0
229 -801 -226 0
-229 801 0
-229 226 0
230 -30 -706 0
-230 30 0
-230 706 0
231 -230 -11 0
-231 230 0
-231 11 0
232 -802 -229 0
-232 802 0
-232 229 0
233 -24 -21 0
-233 24 0
-233 21 0
234 -233 -31 0
-234 233 0
-234 31 0
235 -803 -232 0
-235 803 0
-235 232 0
236 -743 -27 0
-236 743 0
-236 27 0
237 -236 -804 0
-237 236 0
-237 804 0
238 -805 -235 0
-238 805 0
-238 235 0
239 -19 -706 0
-239 19 0
-239 706 0
240 -239 -781 0
-240 239 0
-240 781 0
241 -806 -238 0
-241 806 0
-241 238 0
242 -33 -807 0
-242 33 0
-242 807 0
243 -242 -20 0
-243 242 0
-243 20 0
244 -808 -241 0
-244 808 0
-244 241 0
245 -16 -707 0
-245 16 0
-245 707 0
246 -245 -18 0
-246 245 0
-246 18 0
247 -809 -244 0
-247 809 0
-247 244 0
248 -750 -715 0
-248 750 0
-248 715 0
249 -248 -719 0
-249 248 0
-249 719 0
250 -810 -247 0
-250 810 0
-250 247 0
251 -44 -7 0
-251 44 0
-251 7 0
252 -251 -739 0
-252 251 0
-252 739 0
253 -811 -250 0
-253 811 0
-253 250 0
254 -783 -804 0
-254 783 0
-254 804 0
255 -254 -748 0
-255 254 0
-255 748 0
256 -812 -253 0
-256 812 0
-256 253 0
257 -41 -28 0
-257 41 0
-257 28 0
258 -257 -741 0
-258 257 0
-258 741 0
259 -813 -256 0
-259 813 0
-259 256 0
260 -48 -739 0
-260 48 0
-260 739 0
261 -260 -11 0
-261 260 0
-261 11 0
262 -814 -259 0
-262 814 0
-262 259 0
263 -44 -743 0
-263 44 0
-263 743 0
264 -263 -2 0
-264 263 0
-264 2 0
265 -815 -262 0
-265 815 0
-265 262 0
266 -816 -7 0
-266 816 0
-266 7 0
267 -266 -699 0
-267 266 0
-267 699 0
268 -817 -265 0
-268 817 0
-268 265 0
269 -37 -733 0
-269 37 0
-269 733 0
270 -269 -42 0
-270 269 0
-270 42 0
271 -818 -268 0
-271 818 0
-271 268 0
272 -738 -21 0
-272 738 0
-272 21 0
273 -272 -44 0
-273 272 0
-273 44 0
274 -819 -271 0
-274 819 0
-274 271 0
275 -22 -16 0
-275 22 0
-275 16 0
276 -275 -25 0
-276 275 0
-276 25 0
277 -820 -274 0
-277 820 0
-277 274 0
278 -704 -1 0
-278 704 0
-278 1 0
279 -278 -729 0
-279 278 0
-279 729 0
280 -821 -277 0
-280 821 0
-280 277 0
281 -46 -37 0
-281 46 0
-281 37 0
282 -281 -29 0
-282 281 0
-282 29 0
283 -822 -280 0
-283 822 0
-283 280 0
284 -753 -706 0
-284 753 0
-284 706 0
285 -284 -18 0
-285 284 0
-285 18 0
286 -823 -283 0
-286 823 0
-286 283 0
287 -14 -9 0
-287 14 0
-287 9 0
288 -287 -711 0
-288 287 0
-288 711 0
289 -824 -286 0
-289 824 0
-289 286 0
290 -37 -729 0
-290 37 0
-290 729 0
291 -290 -722 0
-291 290 0
-291 722 0
292 -825 -289 0
-292 825 0
-292 289 0
293 -39 -704 0
-293 39 0
-293 704 0
294 -293 -33 0
-294 293 0
-294 33 0
295 -826 -292 0
-295 826 0
-295 292 0
296 -16 -1 0
-296 16 0
-296 1 0
297 -296 -733 0
-297 296 0
-297 733 0
298 -827 -295 0
-298 827 0
-298 295 0
299 -14 -4 0
-299 14 0
-299 4 0
300 -299 -719 0
-300 299 0
-300 719 0
301 -828 -298 0
-301 828 0
-301 298 0
302 -5 -778 0
-302 5 0
-302 778 0
303 -302 -8 0
-303 302 0
-303 8 0
304 -829 -301 0
-304 829 0
-304 301 0
305 -39 -29 0
-305 39 0
-305 29 0
306 -305 -700 0
-306 305 0
-306 700 0
307 -830 -304 0
-307 830 0
-307 304 0
308 -194 -28 0
-308 194 0
-308 28 0
309 -831 -307 0
-309 831 0
-309 307 0
310 -816 -21 0
-310 816 0
-310 21 0
311 -310 -732 0
-311 310 0
-311 732 0
312 -832 -309 0
-312 832 0
-312 309 0
313 -738 -7 0
-313 738 0
-313 7 0
314 -313 -729 0
-314 313 0
-314 729 0
315 -833 -312 0
-315 833 0
-315 312 0
316 -41 -724 0
-316 41 0
-316 724 0
317 -316 -15 0
-317 316 0
-317 15 0
318 -834 -315 0
-318 834 0
-318 315 0
319 -24 -10 0
-319 24 0
-319 10 0
320 -319 -750 0
-320 319 0
-320 750 0
321 -835 -318 0
-321 835 0
-321 318 0
322 -40 -728 0
-322 40 0
-322 728 0
323 -322 -807 0
-323 322 0
-323 807 0
324 -836 -321 0
-324 836 0
-324 321 0
325 -804 -730 0
-325 804 0
-325 730 0
326 -325 -756 0
-326 325 0
-326 756 0
327 -837 -324 0
-327 837 0
-327 324 0
328 -783 -8 0
-328 783 0
-328 8 0
329 -328 -13 0
-329 328 0
-329 13 0
330 -838 -327 0
-330 838 0
-330 327 0
331 -726 -778 0
-331 726 0
-331 778 0
332 -331 -713 0
-332 331 0
-332 713 0
333 -839 -330 0
-333 839 0
-333 330 0
334 -724 -4 0
-334 724 0
-334 4 0
335 -334 -9 0
-335 334 0
-335 9 0
336 -840 -333 0
-336 840 0
-336 333 0
337 -773 -40 0
-337 773 0
-337 40 0
338 -337 -49 0
-338 337 0
-338 49 0
339 -841 -336 0
-339 841 0
-339 336 0
340 -35 -842 0
-340 35 0
-340 842 0
341 -340 -700 0
-341 340 0
-341 700 0
342 -843 -339 0
-342 843 0
-342 339 0
343 -31 -710 0
-343 31 0
-343 710 0
344 -343 -23 0
-344 343 0
-344 23 0
345 -844 -342 0
-345 844 0
-345 342 0
346 -22 -842 0
-346 22 0
-346 842 0
347 -346 -33 0
-347 346 0
-347 33 0
348 -845 -345 0
-348 845 0
-348 345 0
349 -16 -724 0
-349 16 0
-349 724 0
350 -349 -846 0
-350 349 0
-350 846 0
351 -847 -348 0
-351 847 0
-351 348 0
352 -756 -700 0
-352 756 0
-352 700 0
353 -352 -722 0
-353 352 0
-353 722 0
354 -848 -351 0
-354 848 0
-354 351 0
355 -721 -724 0
-355 721 0
-355 724 0
356 -355 -711 0
-356 355 0
-356 711 0
357 -849 -354 0
-357 849 0
-357 354 0
358 -46 -713 0
-358 46 0
-358 713 0
359 -358 -20 0
-359 358 0
-359 20 0
360 -850 -357 0
-360 850 0
-360 357 0
361 -27 -2 0
-361 27 0
-361 2 0
362 -361 -709 0
-362 361 0
-362 709 0
363 -851 -360 0
-363 851 0
-363 360 0
364 -37 -778 0
-364 37 0
-364 778 0
365 -364 -9 0
-365 364 0
-365 9 0
366 -852 -363 0
-366 852 0
-366 363 0
367 -15 -754 0
-367 15 0
-367 754 0
368 -367 -762 0
-368 367 0
-368 762 0
369 -853 -366 0
-369 853 0
-369 366 0
370 -715 -783 0
-370 715 0
-370 783 0
371 -370 -19 0
-371 370 0
-371 19 0
372 -854 -369 0
-372 854 0
-372 369 0
373 -756 -704 0
-373 756 0
-373 704 0
374 -373 -18 0
-374 373 0
-374 18 0
375 -855 -372 0
-375 855 0
-375 372 0
376 -25 -6 0
-376 25 0
-376 6 0
377 -376 -711 0
-377 376 0
-377 711 0
378 -856 -375 0
-378 856 0
-378 375 0
379 -816 -783 0
-379 816 0
-379 783 0
380 -379 -17 0
-380 379 0
-380 17 0
381 -857 -378 0
-381 857 0
-381 378 0
382 -762 -706 0
-382 762 0
-382 706 0
383 -382 -23 0
-383 382 0
-383 23 0
384 -858 -381 0
-384 858 0
-384 381 0
385 -41 -6 0
-385 41 0
-385 6 0
386 -385 -3 0
-386 385 0
-386 3 0
387 -859 -384 0
-387 859 0
-387 384 0
388 -777 -24 0
-388 777 0
-388 24 0
389 -388 -860 0
-389 388 0
-389 860 0
390 -861 -387 0
-390 861 0
-390 387 0
391 -773 -15 0
-391 773 0
-391 15 0
392 -391 -36 0
-392 391 0
-392 36 0
393 -862 -390 0
-393 862 0
-393 390 0
394 -743 -26 0
-394 743 0
-394 26 0
395 -394 -17 0
-395 394 0
-395 17 0
396 -863 -393 0
-396 863 0
-396 393 0
397 -728 -704 0
-397 728 0
-397 704 0
398 -397 -739 0
-398 397 0
-398 739 0
399 -864 -396 0
-399 864 0
-399 396 0
400 -28 -27 0
-400 28 0
-400 27 0
401 -400 -711 0
-401 400 0
-401 711 0
402 -865 -399 0
-402 865 0
-402 399 0
403 -44 -34 0
-403 44 0
-403 34 0
404 -403 -719 0
-404 403 0
-404 719 0
405 -866 -402 0
-405 866 0
-405 402 0
406 -7 -5 0
-406 7 0
-406 5 0
407 -406 -777 0
-407 406 0
-407 777 0
408 -867 -405 0
-408 867 0
-408 405 0
409 -48 -37 0
-409 48 0
-409 37 0
410 -409 -36 0
-410 409 0
-410 36 0
411 -868 -408 0
-411 868 0
-411 408 0
412 -34 -5 0
-412 34 0
-412 5 0
413 -412 -29 0
-413 412 0
-413 29 0
414 -869 -411 0
-414 869 0
-414 411 0
415 -40 -739 0
-415 40 0
-415 739 0
416 -415 -47 0
-416 415 0
-416 47 0
417 -870 -414 0
-417 870 0
-417 414 0
418 -43 -25 0
-418 43 0
-418 25 0
419 -418 -871 0
-419 418 0
-419 871 0
420 -872 -417 0
-420 872 0
-420 417 0
421 -37 -27 0
-421 37 0
-421 27 0
422 -421 -31 0
-422 421 0
-422 31 0
423 -873 -420 0
-423 873 0
-423 420 0
424 -758 -783 0
-424 758 0
-424 783 0
425 -424 -42 0
-425 424 0
-425 42 0
426 -874 -423 0
-426 874 0
-426 423 0
427 -316 -8 0
-427 316 0
-427 8 0
428 -875 -426 0
-428 875 0
-428 426 0
429 -29 -25 0
-429 29 0
-429 25 0
430 -429 -760 0
-430 429 0
-430 760 0
431 -876 -428 0
-431 876 0
-431 428 0
432 -768 -721 0
-432 768 0
-432 721 0
433 -432 -722 0
-433 432 0
-433 722 0
434 -877 -431 0
-434 877 0
-434 431 0
435 -728 -10 0
-435 728 0
-435 10 0
436 -435 -42 0
-436 435 0
-436 42 0
437 -878 -434 0
-437 878 0
-437 434 0
438 -713 -13 0
-438 713 0
-438 13 0
439 -438 -31 0
-439 438 0
-439 31 0
440 -879 -437 0
-440 879 0
-440 437 0
441 -783 -16 0
-441 783 0
-441 16 0
442 -441 -17 0
-442 441 0
-442 17 0
443 -880 -440 0
-443 880 0
-443 440 0
444 -10 -1 0
-444 10 0
-444 1 0
445 -444 -18 0
-445 444 0
-445 18 0
446 -881 -443 0
-446 881 0
-446 443 0
447 -743 -10 0
-447 743 0
-447 10 0
448 -447 -722 0
-448 447 0
-448 722 0
449 -882 -446 0
-449 882 0
-449 446 0
450 -24 -3 0
-450 24 0
-450 3 0
451 -450 -760 0
-451 450 0
-451 760 0
452 -883 -449 0
-452 883 0
-452 449 0
453 -721 -758 0
-453 721 0
-453 758 0
454 -453 -760 0
-454 453 0
-454 760 0
455 -884 -452 0
-455 884 0
-455 452 0
456 -44 -21 0
-456 44 0
-456 21 0
457 -456 -45 0
-457 456 0
-457 45 0
458 -885 -455 0
-458 885 0
-458 455 0
459 -728 -4 0
-459 728 0
-459 4 0
460 -459 -807 0
-460 459 0
-460 807 0
461 -886 -458 0
-461 886 0
-461 458 0
462 -726 -12 0
-462 726 0
-462 12 0
463 -462 -8 0
-463 462 0
-463 8 0
464 -887 -461 0
-464 887 0
-464 461 0
465 -707 -754 0
-465 707 0
-465 754 0
466 -465 -748 0
-466 465 0
-466 748 0
467 -888 -464 0
-467 888 0
-467 464 0
468 -15 -842 0
-468 15 0
-468 842 0
469 -468 -713 0
-469 468 0
-469 713 0
470 -889 -467 0
-470 889 0
-470 467 0
471 -732 -32 0
-471 732 0
-471 32 0
472 -471 -36 0
-472 471 0
-472 36 0
473 -890 -470 0
-473 890 0
-473 470 0
474 -706 -842 0
-474 706 0
-474 842 0
475 -474 -33 0
-475 474 0
-475 33 0
476 -891 -473 0
-476 891 0
-476 473 0
477 -33 -699 0
-477 33 0
-477 699 0
478 -477 -17 0
-478 477 0
-478 17 0
479 -892 -476 0
-479 892 0
-479 476 0
480 -49 -46 0
-480 49 0
-480 46 0
481 -480 -733 0
-481 480 0
-481 733 0
482 -893 -479 0
-482 893 0
-482 479 0
483 -37 -721 0
-483 37 0
-483 721 0
484 -483 -722 0
-484 483 0
-484 722 0
485 -894 -482 0
-485 894 0
-485 482 0
486 -41 -21 0
-486 41 0
-486 21 0
487 -486 -709 0
-487 486 0
-487 709 0
488 -895 -485 0
-488 895 0
-488 485 0
489 -32 -15 0
-489 32 0
-489 15 0
490 -489 -38 0
-490 489 0
-490 38 0
491 -896 -488 0
-491 896 0
-491 488 0
492 -777 -715 0
-492 777 0
-492 715 0
493 -492 -768 0
-493 492 0
-493 768 0
494 -897 -491 0
-494 897 0
-494 491 0
495 -756 -21 0
-495 756 0
-495 21 0
496 -495 -713 0
-496 495 0
-496 713 0
497 -898 -494 0
-497 898 0
-497 494 0
498 -19 -5 0
-498 19 0
-498 5 0
499 -498 -846 0
-499 498 0
-499 846 0
500 -899 -497 0
-500 899 0
-500 497 0
501 -27 -4 0
-501 27 0
-501 4 0
502 -501 -713 0
-502 501 0
-502 713 0
503 -900 -500 0
-503 900 0
-503 500 0
504 -39 -21 0
-504 39 0
-504 21 0
505 -504 -707 0
-505 504 0
-505 707 0
506 -901 -503 0
-506 901 0
-506 503 0
507 -29 -700 0
-507 29 0
-507 700 0
508 -507 -798 0
-508 507 0
-508 798 0
509 -902 -506 0
-509 902 0
-509 506 0
510 -37 -10 0
-510 37 0
-510 10 0
511 -510 -715 0
-511 510 0
-511 715 0
512 -903 -509 0
-512 903 0
-512 509 0
513 -739 -22 0
-513 739 0
-513 22 0
514 -513 -3 0
-514 513 0
-514 3 0
515 -904 -512 0
-515 904 0
-515 512 0
516 -728 -6 0
-516 728 0
-516 6 0
517 -516 -719 0
-517 516 0
-517 719 0
518 -905 -515 0
-518 905 0
-518 515 0
519 -798 -16 0
-519 798 0
-519 16 0
520 -519 -760 0
-520 519 0
-520 760 0
521 -906 -518 0
-521 906 0
-521 518 0
522 -773 -728 0
-522 773 0
-522 728 0
523 -522 -760 0
-523 522 0
-523 760 0
524 -907 -521 0
-524 907 0
-524 521 0
525 -768 -706 0
-525 768 0
-525 706 0
526 -525 -3 0
-526 525 0
-526 3 0
527 -908 -524 0
-527 908 0
-527 524 0
528 -37 -704 0
-528 37 0
-528 704 0
529 -528 -10 0
-529 528 0
-529 10 0
530 -909 -527 0
-530 909 0
-530 527 0
531 -32 -816 0
-531 32 0
-531 816 0
532 -531 -28 0
-532 531 0
-532 28 0
533 -910 -530 0
-533 910 0
-533 530 0
534 -9 -1 0
-534 9 0
-534 1 0
535 -534 -36 0
-535 534 0
-535 36 0
536 -911 -533 0
-536 911 0
-536 533 0
537 -743 -9 0
-537 743 0
-537 9 0
538 -537 -846 0
-538 537 0
-538 846 0
539 -912 -536 0
-539 912 0
-539 536 0
540 -27 -724 0
-540 27 0
-540 724 0
541 -540 -42 0
-541 540 0
-541 42 0
542 -913 -539 0
-542 913 0
-542 539 0
543 -15 -1 0
-543 15 0
-543 1 0
544 -543 -736 0
-544 543 0
-544 736 0
545 -914 -542 0
-545 914 0
-545 542 0
546 -32 -4 0
-546 32 0
-546 4 0
547 -546 -707 0
-547 546 0
-547 707 0
548 -915 -545 0
-548 915 0
-548 545 0
549 -46 -44 0
-549 46 0
-549 44 0
550 -549 -45 0
-550 549 0
-550 45 0
551 -916 -548 0
-551 916 0
-551 548 0
552 -715 -7 0
-552 715 0
-552 7 0
553 -552 -16 0
-553 552 0
-553 16 0
554 -917 -551 0
-554 917 0
-554 551 0
555 -745 -29 0
-555 745 0
-555 29 0
556 -555 -30 0
-556 555 0
-556 30 0
557 -918 -554 0
-557 918 0
-557 554 0
558 -816 -13 0
-558 816 0
-558 13 0
559 -558 -38 0
-559 558 0
-559 38 0
560 -919 -557 0
-560 919 0
-560 557 0
561 -40 -29 0
-561 40 0
-561 29 0
562 -561 -16 0
-562 561 0
-562 16 0
563 -920 -560 0
-563 920 0
-563 560 0
564 -48 -46 0
-564 48 0
-564 46 0
565 -564 -736 0
-565 564 0
-565 736 0
566 -921 -563 0
-566 921 0
-566 563 0
567 -19 -13 0
-567 19 0
-567 13 0
568 -567 -700 0
-568 567 0
-568 700 0
569 -922 -566 0
-569 922 0
-569 566 0
570 -768 -8 0
-570 768 0
-570 8 0
571 -570 -33 0
-571 570 0
-571 33 0
572 -923 -569 0
-572 923 0
-572 569 0
573 -726 -807 0
-573 726 0
-573 807 0
574 -573 -762 0
-574 573 0
-574 762 0
575 -924 -572 0
-575 924 0
-575 572 0
576 -860 -807 0
-576 860 0
-576 807 0
577 -576 -36 0
-577 576 0
-577 36 0
578 -925 -575 0
-578 925 0
-578 575 0
579 -26 -699 0
-579 26 0
-579 699 0
580 -579 -781 0
-580 579 0
-580 781 0
581 -926 -578 0
-581 926 0
-581 578 0
582 -732 -816 0
-582 732 0
-582 816 0
583 -582 -748 0
-583 582 0
-583 748 0
584 -927 -581 0
-584 927 0
-584 581 0
585 -719 -707 0
-585 719 0
-585 707 0
586 -585 -871 0
-586 585 0
-586 871 0
587 -928 -584 0
-587 928 0
-587 584 0
588 -738 -17 0
-588 738 0
-588 17 0
589 -588 -748 0
-589 588 0
-589 748 0
590 -929 -587 0
-590 929 0
-590 587 0
591 -39 -709 0
-591 39 0
-591 709 0
592 -591 -42 0
-592 591 0
-592 42 0
593 -930 -590 0
-593 930 0
-593 590 0
594 -709 -706 0
-594 709 0
-594 706 0
595 -594 -700 0
-595 594 0
-595 700 0
596 -931 -593 0
-596 931 0
-596 593 0
597 -38 -715 0
-597 38 0
-597 715 0
598 -597 -736 0
-598 597 0
-598 736 0
599 -932 -596 0
-599 932 0
-599 596 0
600 -20 -13 0
-600 20 0
-600 13 0
601 -600 -798 0
-601 600 0
-601 798 0
602 -933 -599 0
-602 933 0
-602 599 0
603 -38 -18 0
-603 38 0
-603 18 0
604 -603 -31 0
-604 603 0
-604 31 0
605 -934 -602 0
-605 934 0
-605 602 0
606 -44 -750 0
-606 44 0
-606 750 0
607 -606 -711 0
-607 606 0
-607 711 0
608 -935 -605 0
-608 935 0
-608 605 0
609 -9 -704 0
-609 9 0
-609 704 0
610 -609 -19 0
-610 609 0
-610 19 0
611 -936 -608 0
-611 936 0
-611 608 0
612 -46 -5 0
-612 46 0
-612 5 0
613 -612 -750 0
-613 612 0
-613 750 0
614 -937 -611 0
-614 937 0
-614 611 0
615 -8 -842 0
-615 8 0
-615 842 0
616 -615 -733 0
-616 615 0
-616 733 0
617 -938 -614 0
-617 938 0
-617 614 0
618 -12 -7 0
-618 12 0
-618 7 0
619 -618 -30 0
-619 618 0
-619 30 0
620 -939 -617 0
-620 939 0
-620 617 0
621 -203 -785 0
-621 203 0
-621 785 0
622 -940 -620 0
-622 940 0
-622 620 0
623 -733 -6 0
-623 733 0
-623 6 0
624 -623 -25 0
-624 623 0
-624 25 0
625 -941 -622 0
-625 941 0
-625 622 0
626 -44 -24 0
-626 44 0
-626 24 0
627 -626 -748 0
-627 626 0
-627 748 0
628 -942 -625 0
-628 942 0
-628 625 0
629 -385 -28 0
-629 385 0
-629 28 0
630 -943 -628 0
-630 943 0
-630 628 0
631 -28 -804 0
-631 28 0
-631 804 0
632 -631 -23 0
-632 631 0
-632 23 0
633 -944 -630 0
-633 944 0
-633 630 0
634 -510 -18 0
-634 510 0
-634 18 0
635 -945 -633 0
-635 945 0
-635 633 0
636 -22 -5 0
-636 22 0
-636 5 0
637 -636 -816 0
-637 636 0
-637 816 0
638 -946 -635 0
-638 946 0
-638 635 0
639 -748 -713 0
-639 748 0
-639 713 0
640 -639 -760 0
-640 639 0
-640 760 0
641 -947 -638 0
-641 947 0
-641 638 0
642 -753 -728 0
-642 753 0
-642 728 0
643 -642 -846 0
-643 642 0
-643 846 0
644 -948 -641 0
-644 948 0
-644 641 0
645 -738 -726 0
-645 738 0
-645 726 0
646 -645 -20 0
-646 645 0
-646 20 0
647 -949 -644 0
-647 949 0
-647 644 0
648 -50 -21 0
-648 50 0
-648 21 0
649 -648 -711 0
-649 648 0
-649 711 0
650 -950 -647 0
-650 950 0
-650 647 0
651 -785 -729 0
-651 785 0
-651 729 0
652 -651 -25 0
-652 651 0
-652 25 0
653 -951 -650 0
-653 951 0
-653 650 0
654 -777 -26 0
-654 777 0
-654 26 0
655 -654 -722 0
-655 654 0
-655 722 0
656 -952 -653 0
-656 952 0
-656 653 0
657 -39 -707 0
-657 39 0
-657 707 0
658 -657 -3 0
-658 657 0
-658 3 0
659 -953 -656 0
-659 953 0
-659 656 0
660 -753 -726 0
-660 753 0
-660 726 0
661 -660 -19 0
-661 660 0
-661 19 0
662 -954 -659 0
-662 954 0
-662 659 0
663 -726 -804 0
-663 726 0
-663 804 0
664 -663 -732 0
-664 663 0
-664 732 0
665 -955 -662 0
-665 955 0
-665 662 0
666 -47 -704 0
-666 47 0
-666 704 0
667 -666 -28 0
-667 666 0
-667 28 0
668 -956 -665 0
-668 956 0
-668 665 0
669 -18 -15 0
-669 18 0
-669 15 0
670 -669 -713 0
-670 669 0
-670 713 0
671 -957 -668 0
-671 957 0
-671 668 0
672 -16 -699 0
-672 16 0
-672 699 0
673 -672 -50 0
-673 672 0
-673 50 0
674 -958 -671 0
-674 958 0
-674 671 0
675 -722 -7 0
-675 722 0
-675 7 0
676 -675 -871 0
-676 675 0
-676 871 0
677 -959 -674 0
-677 959 0
-677 674 0
678 -49 -13 0
-678 49 0
-678 13 0
679 -678 -846 0
-679 678 0
-679 846 0
680 -960 -677 0
-680 960 0
-680 677 0
681 -25 -715 0
-681 25 0
-681 715 0
682 -681 -769 0
-682 681 0
-682 769 0
683 -961 -680 0
-683 961 0
-683 680 0
684 -719 -783 0
-684 719 0
-684 783 0
685 -684 -43 0
-685 684 0
-685 43 0
686 -962 -683 0
-686 962 0
-686 683 0
687 -745 -816 0
-687 745 0
-687 816 0
688 -687 -42 0
-688 687 0
-688 42 0
689 -963 -686 0
-689 963 0
-689 686 0
690 -777 -44 0
-690 777 0
-690 44 0
691 -690 -35 0
-691 690 0
-691 35 0
692 -964 -689 0
-692 964 0
-692 689 0
693 -715 -14 0
-693 715 0
-693 14 0
694 -693 -741 0
-694 693 0
-694 741 0
695 -965 -692 0
-695 965 0
-695 692 0
696 -738 -804 0
-696 738 0
-696 804 0
697 -696 -42 0
-697 696 0
-697 42 0
698 -966 -695 0
-698 966 0
-698 695 0
-699 -2 0
699 2 0
-700 -3 0
700 3 0
-701 -54 0
701 54 0
-702 -52 0
702 52 0
-703 -57 0
703 57 0
-704 -4 0
704 4 0
-705 -60 0
705 60 0
-706 -12 0
706 12 0
-707 -14 0
707 14 0
-708 -63 0
708 63 0
-709 -16 0
709 16 0
-710 -15 0
710 15 0
-711 -17 0
711 17 0
-712 -66 0
712 66 0
-713 -19 0
713 19 0
-714 -69 0
714 69 0
-715 -22 0
715 22 0
-716 -72 0
716 72 0
-717 -75 0
717 75 0
-718 -78 0
718 78 0
-719 -28 0
719 28 0
-720 -81 0
720 81 0
-721 -29 0
721 29 0
-722 -30 0
722 30 0
-723 -84 0
723 84 0
-724 -7 0
724 7 0
-725 -87 0
725 87 0
-726 -32 0
726 32 0
-727 -90 0
727 90 0
-728 -34 0
728 34 0
-729 -5 0
729 5 0
-730 -10 0
730 10 0
-731 -93 0
731 93 0
-732 -33 0
732 33 0
-733 -35 0
733 35 0
-734 -96 0
734 96 0
-735 -99 0
735 99 0
-736 -18 0
736 18 0
-737 -102 0
737 102 0
-738 -37 0
738 37 0
-739 -38 0
739 38 0
-740 -105 0
740 105 0
-741 -36 0
741 36 0
-742 -108 0
742 108 0
-743 -40 0
743 40 0
-744 -111 0
744 111 0
-745 -41 0
745 41 0
-746 -114 0
746 114 0
-747 -117 0
747 117 0
-748 -43 0
748 43 0
-749 -120 0
749 120 0
-750 -26 0
750 26 0
-751 -123 0
751 123 0
-752 -126 0
752 126 0
-753 -46 0
753 46 0
-754 -8 0
754 8 0
-755 -129 0
755 129 0
-756 -39 0
756 39 0
-757 -132 0
757 132 0
-758 -24 0
758 24 0
-759 -135 0
759 135 0
-760 -11 0
760 11 0
-761 -138 0
761 138 0
-762 -47 0
762 47 0
-763 -141 0
763 141 0
-764 -144 0
764 144 0
-765 -147 0
765 147 0
-766 -150 0
766 150 0
-767 -153 0
767 153 0
-768 -44 0
768 44 0
-769 -23 0
769 23 0
-770 -156 0
770 156 0
-771 -159 0
771 159 0
-772 -162 0
772 162 0
-773 -48 0
773 48 0
-774 -165 0
774 165 0
-775 -168 0
775 168 0
-776 -171 0
776 171 0
-777 -49 0
777 49 0
-778 -1 0
778 1 0
-779 -174 0
779 174 0
-780 -177 0
780 177 0
-781 -42 0
781 42 0
-782 -180 0
782 180 0
-783 -21 0
783 21 0
-784 -183 0
784 183 0
-785 -45 0
785 45 0
-786 -186 0
786 186 0
-787 -189 0
787 189 0
-788 -192 0
788 192 0
-789 -195 0
789 195 0
-790 -198 0
790 198 0
-791 -201 0
791 201 0
-792 -204 0
792 204 0
-793 -207 0
793 207 0
-794 -210 0
794 210 0
-795 -213 0
795 213 0
-796 -216 0
796 216 0
-797 -219 0
797 219 0
-798 -25 0
798 25 0
-799 -222 0
799 222 0
-800 -225 0
800 225 0
-801 -228 0
801 228 0
-802 -231 0
802 231 0
-803 -234 0
803 234 0
-804 -13 0
804 13 0
-805 -237 0
805 237 0
-806 -240 0
806 240 0
-807 -9 0
807 9 0
-808 -243 0
808 243 0
-809 -246 0
809 246 0
-810 -249 0
810 249 0
-811 -252 0
811 252 0
-812 -255 0
812 255 0
-813 -258 0
813 258 0
-814 -261 0
814 261 0
-815 -264 0
815 264 0
-816 -27 0
816 27 0
-817 -267 0
817 267 0
-818 -270 0
818 270 0
-819 -273 0
819 273 0
-820 -276 0
820 276 0
-821 -279 0
821 279 0
-822 -282 0
822 282 0
-823 -285 0
823 285 0
-824 -288 0
824 288 0
-825 -291 0
825 291 0
-826 -294 0
826 294 0
-827 -297 0
827 297 0
-828 -300 0
828 300 0
-829 -303 0
829 303 0
-830 -306 0
830 306 0
-831 -308 0
831 308 0
-832 -311 0
832 311 0
-833 -314 0
833 314 0
-834 -317 0
834 317 0
-835 -320 0
835 320 0
-836 -323 0
836 323 0
-837 -326 0
837 326 0
-838 -329 0
838 329 0
-839 -332 0
839 332 0
-840 -335 0
840 335 0
-841 -338 0
841 338 0
-842 -6 0
842 6 0
-843 -341 0
843 341 0
-844 -344 0
844 344 0
-845 -347 0
845 347 0
-846 -20 0
846 20 0
-847 -350 0
847 350 0
-848 -353 0
848 353 0
-849 -356 0
849 356 0
-850 -359 0
850 359 0
-851 -362 0
851 362 0
-852 -365 0
852 365 0
-853 -368 0
853 368 0
-854 -371 0
854 371 0
-855 -374 0
855 374 0
-856 -377 0
856 377 0
-857 -380 0
857 380 0
-858 -383 0
858 383 0
-859 -386 0
859 386 0
-860 -50 0
860 50 0
-861 -389 0
861 389 0
-862 -392 0
862 392 0
-863 -395 0
863 395 0
-864 -398 0
864 398 0
-865 -401 0
865 401 0
-866 -404 0
866 404 0
-867 -407 0
867 407 0
-868 -410 0
868 410 0
-869 -413 0
869 413 0
-870 -416 0
870 416 0
-871 -31 0
871 31 0
-872 -419 0
872 419 0
-873 -422 0
873 422 0
-874 -425 0
874 425 0
-875 -427 0
875 427 0
-876 -430 0
876 430 0
-877 -433 0
877 433 0
-878 -436 0
878 436 0
-879 -439 0
879 439 0
-880 -442 0
880 442 0
-881 -445 0
881 445 0
-882 -448 0
882 448 0
-883 -451 0
883 451 0
-884 -454 0
884 454 0
-885 -457 0
885 457 0
-886 -460 0
886 460 0
-887 -463 0
887 463 0
-888 -466 0
888 466 0
-889 -469 0
889 469 0
-890 -472 0
890 472 0
-891 -475 0
891 475 0
-892 -478 0
892 478 0
-893 -481 0
893 481 0
-894 -484 0
894 484 0
-895 -487 0
895 487 0
-896 -490 0
896 490 0
-897 -493 0
897 493 0
-898 -496 0
898 496 0
-899 -499 0
899 499 0
-900 -502 0
900 502 0
-901 -505 0
901 505 0
-902 -508 0
902 508 0
-903 -511 0
903 511 0
-904 -514 0
904 514 0
-905 -517 0
905 517 0
-906 -520 0
906 520 0
-907 -523 0
907 523 0
-908 -526 0
908 526 0
-909 -529 0
909 529 0
-910 -532 0
910 532 0
-911 -535 0
911 535 0
-912 -538 0
912 538 0
-913 -541 0
913 541 0
-914 -544 0
914 544 0
-915 -547 0
915 547 0
-916 -550 0
916 550 0
-917 -553 0
917 553 0
-918 -556 0
918 556 0
-919 -559 0
919 559 0
-920 -562 0
920 562 0
-921 -565 0
921 565 0
-922 -568 0
922 568 0
-923 -571 0
923 571 0
-924 -574 0
924 574 0
-925 -577 0
925 577 0
-926 -580 0
926 580 0
-927 -583 0
927 583 0
-928 -586 0
928 586 0
-929 -589 0
929 589 0
-930 -592 0
930 592 0
-931 -595 0
931 595 0
-932 -598 0
932 598 0
-933 -601 0
933 601 0
-934 -604 0
934 604 0
-935 -607 0
935 607 0
-936 -610 0
936 610 0
-937 -613 0
937 613 0
-938 -616 0
938 616 0
-939 -619 0
939 619 0
-940 -621 0
940 621 0
-941 -624 0
941 624 0
-942 -627 0
942 627 0
-943 -629 0
943 629 0
-944 -632 0
944 632 0
-945 -634 0
945 634 0
-946 -637 0
946 637 0
-947 -640 0
947 640 0
-948 -643 0
948 643 0
-949 -646 0
949 646 0
-950 -649 0
950 649 0
-951 -652 0
951 652 0
-952 -655 0
952 655 0
-953 -658 0
953 658 0
-954 -661 0
954 661 0
-955 -664 0
955 664 0
-956 -667 0
956 667 0
-957 -670 0
957 670 0
-958 -673 0
958 673 0
-959 -676 0
959 676 0
-960 -679 0
960 679 0
-961 -682 0
961 682 0
-962 -685 0
962 685 0
-963 -688 0
963 688 0
-964 -691 0
964 691 0
-965 -694 0
965 694 0
-966 -697 0
966 697 0
698 0
